p edge 29
e 0 11
e 0 25
e 1 5
e 1 8
e 1 27
e 1 28
e 2 4
e 2 14
e 2 17
e 2 19
e 2 23
e 2 26
e 3 8
e 3 10
e 3 12
e 3 15
e 3 27
e 4 6
e 4 19
e 5 11
e 5 22
e 5 27
e 5 28
e 6 10
e 6 15
e 6 19
e 7 9
e 7 10
e 7 12
e 7 14
e 7 16
e 7 19
e 7 26
e 8 13
e 8 27
e 8 28
e 9 12
e 9 16
e 9 22
e 10 12
e 10 15
e 10 19
e 11 25
e 11 28
e 12 22
e 12 27
e 13 15
e 13 25
e 13 28
e 14 19
e 14 26
e 16 20
e 16 21
e 16 26
e 17 18
e 17 23
e 17 24
e 18 21
e 18 24
e 20 23
e 20 24
e 20 26
e 21 24
e 22 27
e 23 24
e 23 26
e 25 28
c k 4
